0,106.54,29.59
1,91.11,29.97
2,87.68,43.77
3,106.27,38.47
4,111.65,40.82
5,108.33,22.84
6,126.63,45.75
7,125.35,43.88
8,123.38,41.8
9,114.48,38.03
10,112.53,37.87
11,101.74,36.56
12,117,36.65
13,113.6,34.76
14,118.78,32.04
15,117.27,31.86
16,120.19,30.26
17,119.3,26.08
18,115.89,28.68
19,113,28.21
20,114.31,30.52
21,113.23,23.16
22,121.5,25.05
23,110.35,20.02
24,103.73,36.03
25,108.95,34.27
26,104.06,30.67
27,106.71,26.57
28,102.73,25.04
29,114.1,22.2
30,113.33,22.13